c File: flat50_3_0.col
c
c SOURCE: Joseph Culberson (joe@cs.ualberta.ca)
c DESCRIPTION: Quasi-random coloring problem
c              generated with flatness = 0
c                             probability = 0.139
c                             known coloring = 3
c                             random seed = 1143
c              Creation Date:  Tue Jun  9 12:02:11 1998
c Maximum degree = 8 Minimum degree = 0
c p edge 50 115
c cnf created by edge2cnf
p cnf 150 545
-1 -2 0
-1 -3 0
-2 -3 0
1 2 3 0
-4 -5 0
-4 -6 0
-5 -6 0
4 5 6 0
-7 -8 0
-7 -9 0
-8 -9 0
7 8 9 0
-10 -11 0
-10 -12 0
-11 -12 0
10 11 12 0
-13 -14 0
-13 -15 0
-14 -15 0
13 14 15 0
-16 -17 0
-16 -18 0
-17 -18 0
16 17 18 0
-19 -20 0
-19 -21 0
-20 -21 0
19 20 21 0
-22 -23 0
-22 -24 0
-23 -24 0
22 23 24 0
-25 -26 0
-25 -27 0
-26 -27 0
25 26 27 0
-28 -29 0
-28 -30 0
-29 -30 0
28 29 30 0
-31 -32 0
-31 -33 0
-32 -33 0
31 32 33 0
-34 -35 0
-34 -36 0
-35 -36 0
34 35 36 0
-37 -38 0
-37 -39 0
-38 -39 0
37 38 39 0
-40 -41 0
-40 -42 0
-41 -42 0
40 41 42 0
-43 -44 0
-43 -45 0
-44 -45 0
43 44 45 0
-46 -47 0
-46 -48 0
-47 -48 0
46 47 48 0
-49 -50 0
-49 -51 0
-50 -51 0
49 50 51 0
-52 -53 0
-52 -54 0
-53 -54 0
52 53 54 0
-55 -56 0
-55 -57 0
-56 -57 0
55 56 57 0
-58 -59 0
-58 -60 0
-59 -60 0
58 59 60 0
-61 -62 0
-61 -63 0
-62 -63 0
61 62 63 0
-64 -65 0
-64 -66 0
-65 -66 0
64 65 66 0
-67 -68 0
-67 -69 0
-68 -69 0
67 68 69 0
-70 -71 0
-70 -72 0
-71 -72 0
70 71 72 0
-73 -74 0
-73 -75 0
-74 -75 0
73 74 75 0
-76 -77 0
-76 -78 0
-77 -78 0
76 77 78 0
-79 -80 0
-79 -81 0
-80 -81 0
79 80 81 0
-82 -83 0
-82 -84 0
-83 -84 0
82 83 84 0
-85 -86 0
-85 -87 0
-86 -87 0
85 86 87 0
-88 -89 0
-88 -90 0
-89 -90 0
88 89 90 0
-91 -92 0
-91 -93 0
-92 -93 0
91 92 93 0
-94 -95 0
-94 -96 0
-95 -96 0
94 95 96 0
-97 -98 0
-97 -99 0
-98 -99 0
97 98 99 0
-100 -101 0
-100 -102 0
-101 -102 0
100 101 102 0
-103 -104 0
-103 -105 0
-104 -105 0
103 104 105 0
-106 -107 0
-106 -108 0
-107 -108 0
106 107 108 0
-109 -110 0
-109 -111 0
-110 -111 0
109 110 111 0
-112 -113 0
-112 -114 0
-113 -114 0
112 113 114 0
-115 -116 0
-115 -117 0
-116 -117 0
115 116 117 0
-118 -119 0
-118 -120 0
-119 -120 0
118 119 120 0
-121 -122 0
-121 -123 0
-122 -123 0
121 122 123 0
-124 -125 0
-124 -126 0
-125 -126 0
124 125 126 0
-127 -128 0
-127 -129 0
-128 -129 0
127 128 129 0
-130 -131 0
-130 -132 0
-131 -132 0
130 131 132 0
-133 -134 0
-133 -135 0
-134 -135 0
133 134 135 0
-136 -137 0
-136 -138 0
-137 -138 0
136 137 138 0
-139 -140 0
-139 -141 0
-140 -141 0
139 140 141 0
-142 -143 0
-142 -144 0
-143 -144 0
142 143 144 0
-145 -146 0
-145 -147 0
-146 -147 0
145 146 147 0
-148 -149 0
-148 -150 0
-149 -150 0
148 149 150 0
-91 -1 0
-92 -2 0
-93 -3 0
-136 -1 0
-137 -2 0
-138 -3 0
-55 -4 0
-56 -5 0
-57 -6 0
-94 -4 0
-95 -5 0
-96 -6 0
-106 -4 0
-107 -5 0
-108 -6 0
-136 -4 0
-137 -5 0
-138 -6 0
-145 -4 0
-146 -5 0
-147 -6 0
-70 -7 0
-71 -8 0
-72 -9 0
-67 -10 0
-68 -11 0
-69 -12 0
-82 -10 0
-83 -11 0
-84 -12 0
-88 -10 0
-89 -11 0
-90 -12 0
-130 -10 0
-131 -11 0
-132 -12 0
-133 -10 0
-134 -11 0
-135 -12 0
-142 -10 0
-143 -11 0
-144 -12 0
-64 -13 0
-65 -14 0
-66 -15 0
-67 -13 0
-68 -14 0
-69 -15 0
-97 -13 0
-98 -14 0
-99 -15 0
-112 -13 0
-113 -14 0
-114 -15 0
-61 -16 0
-62 -17 0
-63 -18 0
-79 -16 0
-80 -17 0
-81 -18 0
-133 -16 0
-134 -17 0
-135 -18 0
-97 -19 0
-98 -20 0
-99 -21 0
-100 -19 0
-101 -20 0
-102 -21 0
-109 -19 0
-110 -20 0
-111 -21 0
-79 -22 0
-80 -23 0
-81 -24 0
-118 -22 0
-119 -23 0
-120 -24 0
-124 -22 0
-125 -23 0
-126 -24 0
-145 -22 0
-146 -23 0
-147 -24 0
-91 -25 0
-92 -26 0
-93 -27 0
-148 -25 0
-149 -26 0
-150 -27 0
-79 -28 0
-80 -29 0
-81 -30 0
-85 -28 0
-86 -29 0
-87 -30 0
-94 -28 0
-95 -29 0
-96 -30 0
-103 -28 0
-104 -29 0
-105 -30 0
-124 -28 0
-125 -29 0
-126 -30 0
-52 -31 0
-53 -32 0
-54 -33 0
-88 -31 0
-89 -32 0
-90 -33 0
-124 -31 0
-125 -32 0
-126 -33 0
-136 -31 0
-137 -32 0
-138 -33 0
-73 -34 0
-74 -35 0
-75 -36 0
-79 -34 0
-80 -35 0
-81 -36 0
-94 -34 0
-95 -35 0
-96 -36 0
-121 -34 0
-122 -35 0
-123 -36 0
-148 -34 0
-149 -35 0
-150 -36 0
-52 -37 0
-53 -38 0
-54 -39 0
-67 -37 0
-68 -38 0
-69 -39 0
-82 -37 0
-83 -38 0
-84 -39 0
-109 -37 0
-110 -38 0
-111 -39 0
-115 -37 0
-116 -38 0
-117 -39 0
-130 -37 0
-131 -38 0
-132 -39 0
-55 -40 0
-56 -41 0
-57 -42 0
-88 -40 0
-89 -41 0
-90 -42 0
-112 -40 0
-113 -41 0
-114 -42 0
-133 -40 0
-134 -41 0
-135 -42 0
-139 -40 0
-140 -41 0
-141 -42 0
-142 -40 0
-143 -41 0
-144 -42 0
-52 -43 0
-53 -44 0
-54 -45 0
-55 -43 0
-56 -44 0
-57 -45 0
-70 -43 0
-71 -44 0
-72 -45 0
-100 -43 0
-101 -44 0
-102 -45 0
-124 -43 0
-125 -44 0
-126 -45 0
-133 -43 0
-134 -44 0
-135 -45 0
-148 -43 0
-149 -44 0
-150 -45 0
-55 -46 0
-56 -47 0
-57 -48 0
-70 -46 0
-71 -47 0
-72 -48 0
-82 -46 0
-83 -47 0
-84 -48 0
-97 -46 0
-98 -47 0
-99 -48 0
-118 -46 0
-119 -47 0
-120 -48 0
-130 -46 0
-131 -47 0
-132 -48 0
-136 -46 0
-137 -47 0
-138 -48 0
-52 -49 0
-53 -50 0
-54 -51 0
-64 -49 0
-65 -50 0
-66 -51 0
-76 -49 0
-77 -50 0
-78 -51 0
-106 -49 0
-107 -50 0
-108 -51 0
-109 -49 0
-110 -50 0
-111 -51 0
-112 -49 0
-113 -50 0
-114 -51 0
-127 -49 0
-128 -50 0
-129 -51 0
-142 -55 0
-143 -56 0
-144 -57 0
-115 -61 0
-116 -62 0
-117 -63 0
-118 -61 0
-119 -62 0
-120 -63 0
-124 -61 0
-125 -62 0
-126 -63 0
-121 -64 0
-122 -65 0
-123 -66 0
-124 -64 0
-125 -65 0
-126 -66 0
-127 -64 0
-128 -65 0
-129 -66 0
-139 -64 0
-140 -65 0
-141 -66 0
-124 -67 0
-125 -68 0
-126 -69 0
-127 -67 0
-128 -68 0
-129 -69 0
-139 -67 0
-140 -68 0
-141 -69 0
-133 -70 0
-134 -71 0
-135 -72 0
-109 -73 0
-110 -74 0
-111 -75 0
-130 -73 0
-131 -74 0
-132 -75 0
-106 -76 0
-107 -77 0
-108 -78 0
-115 -76 0
-116 -77 0
-117 -78 0
-130 -76 0
-131 -77 0
-132 -78 0
-133 -76 0
-134 -77 0
-135 -78 0
-127 -79 0
-128 -80 0
-129 -81 0
-103 -82 0
-104 -83 0
-105 -84 0
-112 -82 0
-113 -83 0
-114 -84 0
-115 -82 0
-116 -83 0
-117 -84 0
-130 -82 0
-131 -83 0
-132 -84 0
-103 -85 0
-104 -86 0
-105 -87 0
-115 -85 0
-116 -86 0
-117 -87 0
-142 -85 0
-143 -86 0
-144 -87 0
-148 -85 0
-149 -86 0
-150 -87 0
-118 -88 0
-119 -89 0
-120 -90 0
-139 -88 0
-140 -89 0
-141 -90 0
-121 -91 0
-122 -92 0
-123 -93 0
-133 -91 0
-134 -92 0
-135 -93 0
-145 -91 0
-146 -92 0
-147 -93 0
-148 -91 0
-149 -92 0
-150 -93 0
-112 -94 0
-113 -95 0
-114 -96 0
-124 -94 0
-125 -95 0
-126 -96 0
-127 -94 0
-128 -95 0
-129 -96 0
-145 -97 0
-146 -98 0
-147 -99 0
-148 -100 0
-149 -101 0
-150 -102 0
